(set-logic QF_LRA)
(declare-const total_variance Real)
(declare-const expected_conditional_variance Real)
(declare-const conditional_mean_variance Real)
(assert (= total_variance (/ 35 4)))
(assert (= expected_conditional_variance (/ 5 2)))
(assert (= conditional_mean_variance (/ 25 4)))
(assert (= total_variance (+ expected_conditional_variance conditional_mean_variance)))
(assert (= total_variance 9))
(check-sat)
